Data path: /scratch/opt/lxu/CFLG/benchmarks/random_A
Instance: r_10_0.1_12.txt
Result path: /scratch/opt/lxu/CFLG/results/random_A
Solver: Gurobi
Time limit: 3600
Formulation: LEFPV2
Cover: Small
julia --project=. src/main.jl /scratch/opt/lxu/CFLG/benchmarks/random_A r_10_0.1_12.txt /scratch/opt/lxu/CFLG/results/random_A Gurobi 3600 LEFPV2 Small
The latest version of Julia in the `release` channel is 1.11.5+0.x64.linux.gnu. You currently have `1.11.4+0.x64.linux.gnu` installed. Run:

  juliaup update

in your terminal shell to install Julia 1.11.5+0.x64.linux.gnu and update the `release` channel to that version.
/scratch/opt/lxu/CFLG/benchmarks/random_A Gurobi 3600.0 /scratch/opt/lxu/CFLG/results/random_A r_10_0.1_12.txt LEFPV2 Small
/scratch/opt/lxu/CFLG/benchmarks/random_A/r_10_0.1_12.txt

 read graph
data loaded


after absorb:9 10

max_piece:12
problem_graph/original graph: node: 10/10 edge: 12/12 dlt: 0.17080848955601058 break_avg_len: 0.6832339582240424 break_max_len: 1.7753962691558778elapsed CPU time: 0.0456 seconds
Set parameter TokenServer to value "solice01.zib.de"
Set parameter Threads to value 1
Set parameter OutputFlag to value 1
Set parameter MIPGap to value 0.0001
Set parameter MIPGapAbs to value 1
Set parameter TimeLimit to value 3599.9544

 more cuts:true
formulation:LEFPV210 2 2
Set parameter PreCrush to value 1

 model loaded

Gurobi Optimizer version 12.0.1 build v12.0.1rc0 (linux64 - "Debian GNU/Linux 12 (bookworm)")

CPU model: Intel(R) Xeon(R) Gold 5122 CPU @ 3.60GHz, instruction set [SSE2|AVX|AVX2|AVX512]
Thread count: 8 physical cores, 16 logical processors, using up to 1 threads

Non-default parameters:
TimeLimit  3599.9544
MIPGapAbs  1
PreCrush  1
Threads  1

Optimize a model with 302 rows, 166 columns and 669 nonzeros
Model fingerprint: 0x42d76fe4
Variable types: 46 continuous, 120 integer (120 binary)
Coefficient statistics:
  Matrix range     [2e-01, 2e+00]
  Objective range  [1e+00, 1e+00]
  Bounds range     [2e-01, 2e+00]
  RHS range        [2e-02, 2e+00]
Found heuristic solution: objective 29.0000000
Presolve removed 191 rows and 91 columns
Presolve time: 0.01s
Presolved: 111 rows, 75 columns, 347 nonzeros
Variable types: 27 continuous, 48 integer (48 binary)

Root relaxation: objective 2.100000e+01, 46 iterations, 0.00 seconds (0.00 work units)

    Nodes    |    Current Node    |     Objective Bounds      |     Work
 Expl Unexpl |  Obj  Depth IntInf | Incumbent    BestBd   Gap | It/Node Time

     0     0   21.00000    0   14   29.00000   21.00000  27.6%     -    0s
H    0     0                      23.0000000   21.00000  8.70%     -    0s
     0     0   21.50000    0   10   23.00000   21.50000  6.52%     -    0s
     0     0   21.50000    0   12   23.00000   21.50000  6.52%     -    0s
     0     0   21.50000    0   11   23.00000   21.50000  6.52%     -    0s
     0     0   22.00000    0   11   23.00000   22.00000  4.35%     -    0s
     0     0   22.00000    0    9   23.00000   22.00000  4.35%     -    0s
     0     0   22.00000    0    9   23.00000   22.00000  4.35%     -    0s
     0     0   22.00000    0   10   23.00000   22.00000  4.35%     -    0s

Cutting planes:
  Gomory: 2
  Cover: 8
  Clique: 1
  MIR: 8
  RLT: 1
  Relax-and-lift: 2

Explored 1 nodes (133 simplex iterations) in 0.02 seconds (0.01 work units)
Thread count was 1 (of 16 available processors)

Solution count 2: 23 29 

Optimal solution found (tolerance 1.00e-04)
Best objective 2.300000000000e+01, best bound 2.300000000000e+01, gap 0.0000%

User-callback calls 839, time in user-callback 0.86 sec

 sepatime0
23.0Stat(MathOptInterface.OPTIMAL, 23.0, 23.0, 0.0, 0.0, 0.0456, 0.021012067794799805, 1, Main.CFLG.LEFPV2, "", #undef)
